1478
1   1   0    64   0 98 85 61 0
1   2   0    98   0 16 86 38 95 37 0
1   3   0    0    0 0
1   4   0    97   0 96 9 65 32 47 0
1   5   0    93   0 91 59 83 45 100 14 0
1   6   0    92   0 87 13 2 94 99 0
2   1   0    76   0 75 56 39 24 54 0
2   2   0    66   0 23 22 74 21 0
2   3   0    71   0 81 78 68 80 0
2   4   0    86   0 55 25 67 4 72 73 0
2   5   0    72   0 41 15 26 34 29 12 0
2   6   0    96   0 35 71 64 49 36 46 17 97 92 42 57 0
3   1   0    99   0 60 93 84 5 48 7 0
3   2   0    89   0 82 8 18 52 6 43 44 89 0
3   3   0    83   0 27 33 79 50 51 1 0
3   4   0    95   0 76 77 3 66 20 30 0
3   5   0    86   0 10 88 62 19 11 63 90 0
3   6   0    95   0 31 53 40 58 28 69 70 0